c This is a random SAT instance with 10 variables and 20 clauses
p cnf 10 20
3 -6 -4 6 -8 4 -9 1 0
4 10 8 -9 5 0
-2 -8 -6 0
-5 7 -9 -1 3 -10 5 0
4 -1 -10 0
1 -3 0
-8 3 0
-2 9 -3 -8 5 3 -9 -10 2 -6 0
-6 2 -4 -5 -3 -8 6 -1 3 0
-3 7 10 3 -1 8 0
8 -7 7 0
-2 -10 5 -6 -9 1 -8 10 2 0
-6 4 -8 -4 -2 0
7 -4 -1 8 10 0
7 -4 3 0
-4 -5 -6 10 -3 1 9 -1 -9 5 0
-10 6 -7 5 8 4 -4 1 -9 -5 0
-8 4 3 8 -10 -5 0
-8 1 -4 -1 -5 0
-6 7 0